p edge 55 433
e 1 2
e 1 10
e 1 12
e 1 19
e 1 21
e 1 26
e 1 29
e 1 30
e 1 34
e 1 43
e 1 45
e 1 47
e 1 51
e 1 53
e 2 3
e 2 7
e 2 14
e 2 19
e 2 20
e 2 21
e 2 24
e 2 25
e 2 26
e 2 33
e 2 35
e 2 36
e 2 37
e 2 45
e 2 51
e 2 53
e 2 54
e 3 7
e 3 10
e 3 11
e 3 15
e 3 17
e 3 19
e 3 26
e 3 29
e 3 33
e 3 35
e 3 37
e 3 38
e 3 39
e 3 40
e 3 42
e 3 52
e 4 7
e 4 8
e 4 9
e 4 13
e 4 22
e 4 26
e 4 31
e 4 33
e 4 39
e 4 42
e 4 45
e 4 50
e 4 51
e 4 53
e 5 9
e 5 10
e 5 15
e 5 18
e 5 20
e 5 28
e 5 32
e 5 37
e 5 41
e 5 51
e 6 7
e 6 12
e 6 13
e 6 14
e 6 16
e 6 20
e 6 21
e 6 30
e 6 31
e 6 34
e 6 38
e 6 47
e 6 49
e 6 51
e 6 52
e 7 10
e 7 17
e 7 21
e 7 23
e 7 24
e 7 25
e 7 26
e 7 30
e 7 33
e 7 35
e 7 38
e 7 39
e 7 40
e 7 43
e 7 44
e 7 55
e 8 12
e 8 21
e 8 23
e 8 24
e 8 30
e 8 31
e 8 32
e 8 34
e 8 36
e 8 37
e 8 38
e 8 40
e 8 45
e 8 46
e 8 51
e 8 53
e 8 55
e 9 13
e 9 14
e 9 15
e 9 23
e 9 24
e 9 25
e 9 38
e 9 41
e 9 45
e 9 49
e 9 52
e 9 54
e 9 55
e 10 11
e 10 12
e 10 18
e 10 20
e 10 21
e 10 28
e 10 30
e 10 31
e 10 35
e 10 43
e 10 46
e 10 47
e 10 49
e 10 51
e 10 52
e 10 53
e 11 14
e 11 16
e 12 18
e 12 20
e 12 21
e 12 22
e 12 24
e 12 27
e 12 28
e 12 30
e 12 39
e 12 45
e 12 47
e 12 49
e 12 53
e 12 55
e 13 15
e 13 17
e 13 21
e 13 23
e 13 27
e 13 28
e 13 29
e 13 31
e 13 34
e 13 35
e 13 41
e 13 44
e 13 49
e 14 17
e 14 19
e 14 26
e 14 28
e 14 31
e 14 41
e 14 42
e 14 43
e 14 44
e 14 45
e 14 47
e 14 49
e 14 51
e 14 55
e 15 17
e 15 19
e 15 22
e 15 24
e 15 32
e 15 38
e 15 39
e 15 43
e 15 46
e 15 47
e 15 49
e 15 50
e 15 53
e 16 18
e 16 21
e 16 24
e 16 25
e 16 27
e 16 28
e 16 29
e 16 36
e 16 37
e 16 39
e 16 41
e 16 43
e 16 46
e 16 47
e 16 50
e 16 55
e 17 19
e 17 20
e 17 21
e 17 22
e 17 23
e 17 26
e 17 27
e 17 29
e 17 33
e 17 34
e 17 36
e 17 38
e 17 39
e 17 42
e 17 45
e 17 46
e 17 48
e 17 51
e 17 54
e 18 20
e 18 21
e 18 55
e 19 25
e 19 30
e 19 33
e 19 35
e 19 44
e 19 46
e 19 53
e 19 54
e 19 55
e 20 22
e 20 23
e 20 26
e 20 31
e 20 42
e 20 44
e 20 46
e 20 47
e 20 52
e 20 53
e 21 33
e 21 34
e 21 37
e 21 41
e 21 42
e 21 49
e 21 52
e 21 53
e 22 27
e 22 28
e 22 31
e 22 33
e 22 37
e 22 39
e 22 44
e 22 50
e 22 53
e 22 55
e 23 26
e 23 30
e 23 32
e 23 42
e 23 44
e 23 45
e 23 48
e 23 51
e 24 31
e 24 44
e 24 49
e 24 50
e 24 53
e 24 55
e 25 28
e 25 29
e 25 31
e 25 41
e 25 43
e 25 44
e 25 46
e 25 48
e 25 49
e 25 50
e 25 52
e 25 53
e 25 55
e 26 31
e 26 34
e 26 35
e 26 36
e 26 40
e 26 41
e 26 46
e 26 47
e 27 29
e 27 33
e 27 34
e 27 35
e 27 39
e 27 41
e 27 42
e 27 43
e 27 46
e 27 50
e 27 55
e 28 29
e 28 31
e 28 37
e 28 40
e 28 44
e 28 50
e 28 52
e 28 55
e 29 30
e 29 31
e 29 36
e 29 38
e 29 40
e 29 42
e 29 46
e 29 47
e 29 49
e 29 53
e 29 54
e 30 33
e 30 35
e 30 39
e 30 43
e 30 44
e 30 48
e 30 52
e 31 32
e 31 37
e 31 43
e 31 45
e 31 47
e 31 48
e 31 50
e 31 52
e 31 54
e 32 41
e 32 43
e 32 44
e 32 45
e 32 46
e 32 47
e 32 48
e 32 53
e 33 35
e 33 37
e 33 39
e 33 49
e 33 52
e 34 49
e 34 52
e 35 37
e 35 45
e 35 47
e 35 48
e 35 52
e 35 54
e 36 43
e 36 48
e 36 52
e 36 53
e 36 54
e 37 42
e 37 44
e 37 51
e 37 53
e 37 54
e 38 42
e 38 49
e 38 50
e 39 47
e 39 49
e 39 52
e 40 42
e 40 43
e 40 51
e 40 52
e 40 55
e 41 45
e 41 46
e 41 48
e 41 53
e 41 54
e 42 45
e 42 46
e 42 48
e 42 55
e 43 47
e 43 51
e 43 52
e 43 53
e 43 54
e 44 45
e 44 46
e 44 47
e 45 50
e 45 52
e 46 47
e 46 48
e 46 51
e 46 53
e 48 50
e 49 50
e 49 51
e 49 55
e 50 54
e 50 55
e 52 54
e 53 54
